32      4       
9       25      17      15      
0       0       0       0       0       3       2       3       4       
10      0       9       0       0       2       15      16      
9       2       0       0       0       3       5       7       8       
3       0       6       0       0       1       6       
5       3       0       0       0       3       10      17      29      
5       0       0       4       0       3       9       10      14      
1       0       0       4       0       1       13      
1       0       7       0       0       2       9       12      
5       0       0       10      0       3       11      20      26      
5       0       5       0       0       1       16      
6       0       0       3       0       1       23      
4       6       0       0       0       3       13      15      17      
10      0       0       0       7       2       18      23      
4       0       4       0       0       3       20      22      27      
10      0       0       0       7       3       19      21      25      
1       0       0       5       0       2       25      31      
5       0       8       0       0       3       18      21      30      
4       0       5       0       0       1       20      
8       0       0       0       6       3       24      26      29      
3       0       0       5       0       1       31      
8       0       10      0       0       1       26      
4       0       6       0       0       2       24      28      
1       0       0       4       0       3       24      25      28      
4       0       0       1       0       1       30      
4       0       10      0       0       1       30      
1       0       8       0       0       1       31      
7       0       0       7       0       1       28      
4       0       0       0       6       1       29      
2       0       0       0       10      1       32      
1       0       4       0       0       1       32      
2       0       0       0       5       1       32      
0       0       0       0       0       0       